477,6
681,736
690,465
554,279
745,207
1155,481
874,140
532,700
681,-104
681,-74
823,360
532,700
611,503
802,318
477,6
787,460
630,81
709,397
1093,107
769,285
580,719
751,-38
787,300
504,434
452,91
702,427
542,-21
609,354
721,326
477,6
1095,471
